100 500 200 500 10 100
20 274
69 298
100 209
43 207
10 275
31 397
15 220
31 399
98 368
32 320
33 352
26 257
61 435
44 341
27 446
71 303
13 442
77 202
66 468
46 473
53 354
78 439
19 233
50 224
98 470
34 253
15 394
19 322
75 306
17 200
27 343
99 219
71 403
33 433
47 378
56 362
89 274
12 305
48 335
31 457
40 423
84 376
21 319
65 393
63 359
95 323
67 395
65 485
31 262
81 467
20 271
76 371
76 378
23 350
46 253
76 318
52 315
74 240
32 440
29 206
27 224
82 249
71 421
75 215
88 399
77 322
98 209
76 212
46 417
49 349
86 417
20 395
54 358
71 364
94 215
78 294
13 397
21 408
22 325
46 449
57 253
77 392
82 461
26 347
41 266
26 295
60 361
71 464
37 323
97 266
30 395
58 276
50 453
78 308
17 306
78 500
90 275
17 370
59 245
14 361
